Route #1: 15 41 37 6 35 19 29 5 43 17 14 30 39 3 18 40 11
Route #2: 10 23 16 48 46 2 51 21 24 45 22 50 31 25 26 47
Route #3: 33 27 12 32 7 28 44 8 9 13 38 42 1 49 34 20 4 36
Route #4: 
Route #5: 
Route #6: 
Route #7: 
cost 1115.23672970937
